decision_x1=[0,4];
decision_x2=[0,4];
decision_x3=[0,4];
decision_x4=[0,4];
decision_x5=[0,4];
decision_x6=[0,4];
random_y1=[0,4];
random_y2=[0,4];
random_y3=[0,4];
constraint_x3_x2=[
0,1,0.45|
0,2,5.1|
0,3,5.5|
0,4,0.7|
1,0,4|
1,2,7.9|
1,3,5.5|
1,4,4.1|
2,0,1.4|
2,1,8|
2,3,9.3|
2,4,7.4|
3,0,5.9|
3,1,1|
3,2,1.9|
3,4,5.8|
4,0,6.1|
4,1,2.6|
4,2,3.4|
4,3,1.3|
];
constraint_x4_x1=[
0,1,6.8|
0,2,9.9|
0,3,6.7|
0,4,6.3|
1,0,0.72|
1,2,3.3|
1,3,1.9|
1,4,5.1|
2,0,3.5|
2,1,1.1|
2,3,0.025|
2,4,2|
3,0,5.7|
3,1,7.2|
3,2,6.7|
3,4,8.1|
4,0,9.3|
4,1,9.1|
4,2,6.6|
4,3,5.7|
];
constraint_x4_x3=[
0,1,7.1|
0,2,7.1|
0,3,0.1|
0,4,3.1|
1,0,4|
1,2,4.8|
1,3,9.7|
1,4,0.38|
2,0,0.37|
2,1,8.8|
2,3,6.3|
2,4,8.3|
3,0,3|
3,1,5.4|
3,2,1.9|
3,4,4.7|
4,0,0.017|
4,1,8.3|
4,2,7|
4,3,4.4|
];
constraint_x5_x2=[
0,1,2.4|
0,2,3.6|
0,3,8.4|
0,4,7.9|
1,0,9.7|
1,2,3.7|
1,3,9.2|
1,4,0.45|
2,0,0.77|
2,1,8.5|
2,3,0.85|
2,4,8.7|
3,0,0.42|
3,1,8.8|
3,2,0.016|
3,4,6.1|
4,0,6.4|
4,1,3.4|
4,2,6.4|
4,3,4.3|
];
constraint_x5_x3=[
0,1,3.6|
0,2,9|
0,3,9|
0,4,3.1|
1,0,6.9|
1,2,0.15|
1,3,9.2|
1,4,2.5|
2,0,9.9|
2,1,5.5|
2,3,9.2|
2,4,3.9|
3,0,5.5|
3,1,1|
3,2,0.93|
3,4,7.5|
4,0,8.3|
4,1,9.1|
4,2,0.63|
4,3,6.8|
];
constraint_x5_x4=[
0,1,4.3|
0,2,0.83|
0,3,9.7|
0,4,6.7|
1,0,0.15|
1,2,2.1|
1,3,4.3|
1,4,4.4|
2,0,1.5|
2,1,8.1|
2,3,2.7|
2,4,9.2|
3,0,7|
3,1,7.7|
3,2,1.7|
3,4,9.8|
4,0,2.6|
4,1,7.7|
4,2,3.1|
4,3,5.7|
];
constraint_x6_x1=[
0,1,8.8|
0,2,7.2|
0,3,2.8|
0,4,7.2|
1,0,1.3|
1,2,2.7|
1,3,5|
1,4,6.1|
2,0,1.4|
2,1,9.4|
2,3,4.7|
2,4,7.7|
3,0,4.2|
3,1,9|
3,2,4.3|
3,4,6.5|
4,0,4.9|
4,1,3.2|
4,2,3.8|
4,3,1.9|
];
constraint_x6_x5=[
0,1,1.1|
0,2,2.1|
0,3,7.2|
0,4,9.4|
1,0,4.8|
1,2,1.8|
1,3,1.5|
1,4,3.4|
2,0,6|
2,1,3.4|
2,3,5.9|
2,4,4.9|
3,0,4.6|
3,1,3|
3,2,2.4|
3,4,2.4|
4,0,9.2|
4,1,1.3|
4,2,2.4|
4,3,6.7|
];
constraint_x1_y1=[
0,0,9.6|
0,1,6.5|
0,2,3.6|
0,3,9.9|
0,4,9.9|
1,0,5.6|
1,1,1.1|
1,2,2.5|
1,3,6.8|
1,4,4.6|
2,0,7.6|
2,1,2.3|
2,2,5.2|
2,3,5.4|
2,4,4.7|
3,0,4.5|
3,1,4.4|
3,2,4.4|
3,3,7.1|
3,4,4.2|
4,0,4.1|
4,1,3.7|
4,2,5|
4,3,2.7|
4,4,5.1|
];
constraint_x2_y2=[
0,0,4.3|
0,1,4.2|
0,2,9.9|
0,3,9.9|
0,4,0.79|
1,0,6.4|
1,1,6.4|
1,2,7.9|
1,3,2.5|
1,4,6.9|
2,0,7.7|
2,1,9.5|
2,2,3.2|
2,3,2.7|
2,4,5|
3,0,9.6|
3,1,1.4|
3,2,1.5|
3,3,4.8|
3,4,3.9|
4,0,4.6|
4,1,4.4|
4,2,7.7|
4,3,0.34|
4,4,7.8|
];
constraint_x3_y3=[
0,0,2.8|
0,1,1.6|
0,2,7|
0,3,7.3|
0,4,7|
1,0,0.19|
1,1,5.3|
1,2,9.5|
1,3,5.7|
1,4,2.7|
2,0,9.8|
2,1,9.1|
2,2,2.1|
2,3,0.59|
2,4,5.8|
3,0,0.39|
3,1,1.3|
3,2,3|
3,3,5|
3,4,4.4|
4,0,5|
4,1,1.2|
4,2,9.4|
4,3,1.7|
4,4,7.9|
];
initial_distribution_y1=[0.23,0.13,0.065,0.31,0.27];
initial_distribution_y2=[0.084,0.15,0.09,0.55,0.13];
initial_distribution_y3=[0.15,0.15,0.21,0.26,0.24];
transition_y1=[
0.22,0.22,0.16,0.1,0.29|
0.27,0.21,0.23,0.05,0.25|
0.25,0.12,0.15,0.37,0.12|
0.3,0.19,0.2,0.21,0.1|
0.057,0.26,0.21,0.28,0.19|
];
transition_y2=[
0.018,0.4,0.12,0.43,0.025|
0.079,0.37,0.19,0.29,0.074|
0.2,0.26,0.15,0.19,0.2|
0.32,0.22,0.34,0.056,0.068|
0.21,0.27,0.26,0.044,0.22|
];
transition_y3=[
0.048,0.24,0.25,0.24,0.23|
0.31,0.0074,0.18,0.028,0.47|
0.28,0.23,0.21,0.15,0.12|
0.15,0.25,0.15,0.28,0.17|
0.11,0.2,0.25,0.25,0.19|
];
